c This is a random SAT instance with 10 variables and 20 clauses
p cnf 10 20
-7 1 8 -1 0
2 -3 0
-6 0
-4 -6 7 0
3 -9 1 7 0
10 -6 9 8 -4 -5 3 -7 5 0
5 10 2 0
-1 7 0
-4 3 -6 9 0
6 -3 -4 -2 -9 10 9 0
-7 10 -2 7 4 2 9 -4 5 6 0
-5 0
8 6 -8 -9 1 -1 0
-10 3 2 5 10 8 -9 -2 9 0
7 10 9 0
-5 -7 5 0
-4 -6 5 2 9 7 6 -5 0
2 0
-4 -6 2 10 -10 -7 9 7 -8 0
-10 1 -2 -6 -4 -9 -5 0